circuit_heights=[3, 4, 5, 6, 7, 8, 9, 10, 11, 12, 13, 14, 15, 18, 22, 23, 24, 25, 27, 3, 4, 5, 6, 7, 10, 11, 18];
circuit_widths=[3, 3, 3, 3, 3, 3, 3, 3, 3, 3, 3, 3, 3, 3, 3, 3, 3, 3, 3, 4, 4, 4, 4, 4, 4, 4, 4];
max_height=320;
min_height=32;
n_circuits=27;
plate_width=32;
